NAME: MG 18:1
PRECURSORMZ: 374.32537
PRECURSORTYPE: [M+NH4]+
RETENTIONTIME: 7.00691051371926
FORMULA: C21H40O4
ONTOLOGY: MG
INCHIKEY: RZRNAYUHWVFMIP-UHFFFAOYSA-N
SMILES: O=C(OCC(O)CO)CCCCCCCC=CCCCCCCCC
COMMENT: |PEAKID=2392|ISOTOPE=M+0
Num Peaks: 63
71.04794	24
71.08587	114
75.04293	36
77.03987	60
79.05363	270
81.06901	617
83.08462	569
85.06465	36
85.10026	48
87.03991	24
91.05291	36
93.06924	328
94.78698	24
95.08435	569
97.06406	124
97.10021	404
99.07954	12
105.04555	24
105.07044	24
107.07065	12
107.08453	198
109.09996	270
111.0787	60
111.11551	102
113.09612	12
115.03458	12
121.10022	546
123.11539	67
125.09577	36
125.12917	12
127.11409	12
135.11649	669
137.13271	36
139.11084	69
141.12446	12
143.15034	12
147.11689	12
149.13208	255
151.14662	36
153.1249	48
155.13989	24
157.0791	12
163.14656	171
165.1641	60
167.1425	36
169.16052	24
177.16542	48
177.17869	12
179.17983	24
181.15935	12
183.17212	24
191.17817	24
195.16984	24
205.19521	36
209.18665	12
247.2402	327
248.03431	12
264.39472	12
265.25112	334
338.20721	12
339.28525	386
357.29285	12
374.36149	12

NAME: LPE 16:0
PRECURSORMZ: 454.29238
PRECURSORTYPE: [M+H]+
RETENTIONTIME: 6.36630019916855
FORMULA: C21H44NO7P
ONTOLOGY: LPE
INCHIKEY: YVYMBNSKXOXSKW-UHFFFAOYSA-N
SMILES: O=C(OCC(O)COP(=O)(O)OCCN)CCCCCCCCCCCCCCC
COMMENT: |PEAKID=4589|ISOTOPE=M+0
Num Peaks: 143
70.86296	12
71.05031	12
71.08492	1243
71.83724	12
79.05255	36
80.97266	12
81.06898	363
82.06664	12
83.04871	12
83.08487	290
85.06374	24
85.09971	539
89.06039	48
94.78698	12
95.08449	638
96.76235	12
97.06418	24
97.10027	267
98.98247	441
99.0781	24
99.11596	48
103.07367	48
106.00296	24
109.10019	217
111.07923	24
111.11629	48
113.13134	24
117.08564	24
117.09135	24
121.10022	48
123.11653	197
124.01575	164
125.09591	24
125.13023	48
127.11118	12
127.14868	24
135.1176	48
137.00128	12
137.13034	132
139.11057	36
139.14059	12
139.15537	24
142.02506	101
145.11993	24
145.13091	12
149.11862	12
149.13033	24
151.14521	66
155.00903	928
155.18491	12
159.03813	24
159.13471	12
163.1327	12
163.14876	24
165.16301	79
167.1408	36
173.02026	158
173.15445	12
177.16245	24
179.174	36
179.18463	24
180.04468	24
181.1606	12
187.16207	24
198.05187	125
201.18859	24
215.07374	12
215.19208	12
216.06155	147
219.21516	24
221.22573	60
237.21962	24
239.23645	375
240.2515	12
255.09289	12
257.24629	265
281.37977	24
281.38765	12
282.27879	2270
282.57852	12
282.96668	12
284.09607	12
290.48666	12
299.28629	12
312.25744	48
312.2776	60
312.92922	12
313.05707	12
313.22913	21
313.27331	21297
313.32402	11
313.66564	12
313.78618	24
313.81725	12
313.86572	12
313.90674	12
313.92539	12
314.0323	24
314.19147	12
314.22244	24
314.41287	12
314.43153	12
314.44397	12
314.50369	12
314.56466	12
314.6705	12
314.69741	24
314.7252	12
314.80611	12
314.86414	24
314.8945	12
314.96398	24
315.08003	12
315.33414	12
315.47494	12
315.6245	12
315.72242	36
315.86136	12
315.91498	12
316.00627	12
316.10028	12
316.12826	12
316.55253	12
316.7885	12
317.05329	12
317.29748	24
317.82205	12
317.8896	12
318.30629	12
319.31515	24
319.51661	12
319.68844	12
319.79132	12
321.53388	12
324.91559	12
326.06998	12
393.23615	239
418.27986	12
436.27825	60
454.28394	24
454.29309	36
454.30384	36
454.37247	12

NAME: ST 27:1;O
PRECURSORMZ: 369.35052
PRECURSORTYPE: [M+H-H2O]+
RETENTIONTIME: 7.21089723318081
FORMULA: C27H46O
ONTOLOGY: ST
INCHIKEY: HVYWMOMLDIMFJA-UHFFFAOYSA-N
SMILES: OC1CC2=CCC3C(CCC4(C)C(CCC34)C(C)CCCC(C)C)C2(C)CC1
COMMENT: |PEAKID=2225|ISOTOPE=M+0
Num Peaks: 93
71.08355	48
73.04526	12
77.03787	48
79.05442	149
81.0689	596
82.81704	12
83.0846	247
85.10282	24
91.05225	157
93.06911	317
95.08515	463
97.09955	76
104.73457	12
105.06806	284
107.0845	234
109.09995	370
111.1144	60
117.06718	24
119.08487	200
121.09961	219
123.11566	76
125.13493	12
129.06754	12
130.0778	12
131.08505	69
133.09909	395
135.11548	352
137.1313	60
142.07796	12
143.08327	12
145.09859	148
147.11542	804
148.31501	12
149.13168	178
151.14086	24
151.14944	24
152.06028	12
153.06862	12
155.06322	12
159.11632	168
161.13106	653
163.14855	76
165.16001	12
171.11527	12
173.1308	82
174.13415	12
175.14716	277
177.1623	48
179.1804	24
185.12575	12
185.13954	12
187.14553	60
189.16368	127
191.17906	24
193.19141	24
199.14302	24
200.15541	12
201.16242	95
203.17895	60
205.189	24
205.19885	36
207.20644	12
215.17998	216
217.19105	36
219.21009	36
221.22328	12
229.19209	60
231.21197	24
233.22747	36
235.23912	12
243.21044	88
245.22036	12
245.22962	109
247.24101	24
256.2186	12
257.22353	48
259.23908	77
261.25492	36
271.24411	12
273.25772	24
275.28386	12
285.24673	24
285.26394	24
287.26039	12
287.27325	60
299.27706	12
313.28809	24
324.32444	24
324.34592	12
327.08008	24
327.30467	24
368.1702	12
369.35207	274